
Gurobi 9.5.2 (mac64[arm]) logging started Thu Mar 16 21:32:57 2023

Set parameter LogFile to value "./ccga_results/2023-03-16 21-32-55-734/MSP_TimeStampConvert_gurobi_log.txt"

Gurobi 9.5.2 (mac64[arm]) logging started Thu Mar 16 21:32:57 2023

Set parameter LogFile to value "./ccga_results/2023-03-16 21-32-55-734/MSP_TimeStampConvert_gurobi_log.txt"
Set parameter TimeLimit to value 180
Gurobi Optimizer version 9.5.2 build v9.5.2rc0 (mac64[arm])
Thread count: 8 physical cores, 8 logical processors, using up to 8 threads
Optimize a model with 100 rows, 77 columns and 242 nonzeros
Model fingerprint: 0x801eccc1
Variable types: 5 continuous, 72 integer (72 binary)
Coefficient statistics:
  Matrix range     [1e+00, 1e+00]
  Objective range  [1e+00, 1e+00]
  Bounds range     [1e+02, 1e+02]
  RHS range        [1e+00, 1e+00]
Found heuristic solution: objective -0.0000000
Found heuristic solution: objective 130.0000000
Presolve removed 100 rows and 77 columns
Presolve time: 0.00s
Presolve: All rows and columns removed

Explored 0 nodes (0 simplex iterations) in 0.00 seconds (0.00 work units)
Thread count was 1 (of 8 available processors)

Solution count 2: 130 -0 

Optimal solution found (tolerance 1.00e-03)
Best objective 1.300000000000e+02, best bound 1.300000000000e+02, gap 0.0000%

User-callback calls 352, time in user-callback 0.00 sec
Gurobi Optimizer version 9.5.2 build v9.5.2rc0 (mac64[arm])
Thread count: 8 physical cores, 8 logical processors, using up to 8 threads
Optimize a model with 351 rows, 161 columns and 1021 nonzeros
Model fingerprint: 0x0d9eeb55
Variable types: 81 continuous, 80 integer (80 binary)
Coefficient statistics:
  Matrix range     [1e-01, 8e+02]
  Objective range  [1e+00, 1e+00]
  Bounds range     [1e+02, 1e+02]
  RHS range        [1e+00, 1e+08]

MIP start from previous solve did not produce a new incumbent solution

Presolve removed 88 rows and 42 columns
Presolve time: 0.00s
Presolved: 263 rows, 119 columns, 802 nonzeros
Variable types: 59 continuous, 60 integer (60 binary)
Found heuristic solution: objective 100.9158130
Found heuristic solution: objective 118.3669823
Found heuristic solution: objective 130.0000000

Explored 0 nodes (0 simplex iterations) in 0.00 seconds (0.00 work units)
Thread count was 8 (of 8 available processors)

Solution count 3: 130 118.367 100.916 

Optimal solution found (tolerance 1.00e-03)
Best objective 1.300000000000e+02, best bound 1.300000000000e+02, gap 0.0000%

User-callback calls 320, time in user-callback 0.00 sec
Gurobi Optimizer version 9.5.2 build v9.5.2rc0 (mac64[arm])
Thread count: 8 physical cores, 8 logical processors, using up to 8 threads
Optimize a model with 602 rows, 245 columns and 1800 nonzeros
Model fingerprint: 0x23611a55
Variable types: 157 continuous, 88 integer (88 binary)
Coefficient statistics:
  Matrix range     [1e-01, 8e+02]
  Objective range  [1e+00, 1e+00]
  Bounds range     [1e+02, 1e+02]
  RHS range        [1e+00, 1e+08]

MIP start from previous solve produced solution with objective 123.849 (0.00s)
Loaded MIP start from previous solve with objective 123.849

Presolve removed 152 rows and 72 columns
Presolve time: 0.01s
Presolved: 450 rows, 173 columns, 1416 nonzeros
Variable types: 113 continuous, 60 integer (60 binary)

Root relaxation: objective 1.300000e+02, 81 iterations, 0.00 seconds (0.00 work units)

    Nodes    |    Current Node    |     Objective Bounds      |     Work
 Expl Unexpl |  Obj  Depth IntInf | Incumbent    BestBd   Gap | It/Node Time

     0     0  130.00000    0    8  123.84949  130.00000  4.97%     -    0s
H    0     0                     125.7006468  130.00000  3.42%     -    0s
H    0     0                     130.0000000  130.00000  0.00%     -    0s
     0     0  130.00000    0    8  130.00000  130.00000  0.00%     -    0s

Explored 1 nodes (81 simplex iterations) in 0.02 seconds (0.01 work units)
Thread count was 8 (of 8 available processors)

Solution count 3: 130 125.701 123.849 

Optimal solution found (tolerance 1.00e-03)
Best objective 1.300000000000e+02, best bound 1.300000000000e+02, gap 0.0000%

User-callback calls 334, time in user-callback 0.00 sec
Gurobi Optimizer version 9.5.2 build v9.5.2rc0 (mac64[arm])
Thread count: 8 physical cores, 8 logical processors, using up to 8 threads
Optimize a model with 853 rows, 329 columns and 2579 nonzeros
Model fingerprint: 0xea5b9072
Variable types: 233 continuous, 96 integer (96 binary)
Coefficient statistics:
  Matrix range     [1e-01, 8e+02]
  Objective range  [1e+00, 1e+00]
  Bounds range     [1e+02, 1e+02]
  RHS range        [1e+00, 1e+08]

MIP start from previous solve produced solution with objective 12.2887 (0.00s)
Loaded MIP start from previous solve with objective 12.2887

Presolve removed 216 rows and 102 columns
Presolve time: 0.01s
Presolved: 637 rows, 227 columns, 2030 nonzeros
Variable types: 167 continuous, 60 integer (60 binary)

Root relaxation: objective 1.300000e+02, 125 iterations, 0.00 seconds (0.00 work units)

    Nodes    |    Current Node    |     Objective Bounds      |     Work
 Expl Unexpl |  Obj  Depth IntInf | Incumbent    BestBd   Gap | It/Node Time

     0     0  130.00000    0    9   12.28868  130.00000   958%     -    0s
H    0     0                      62.2886813  130.00000   109%     -    0s
H    0     0                     110.4093485  130.00000  17.7%     -    0s
H    0     0                     130.0000000  130.00000  0.00%     -    0s
     0     0          -    0       130.00000  130.00000  0.00%     -    0s

Cutting planes:
  Gomory: 2
  Cover: 3
  MIR: 5
  Flow cover: 8
  RLT: 1
  Relax-and-lift: 1

Explored 1 nodes (164 simplex iterations) in 0.04 seconds (0.01 work units)
Thread count was 8 (of 8 available processors)

Solution count 4: 130 110.409 62.2887 12.2887 

Optimal solution found (tolerance 1.00e-03)
Best objective 1.300000000000e+02, best bound 1.300000000000e+02, gap 0.0000%

User-callback calls 353, time in user-callback 0.00 sec
Gurobi Optimizer version 9.5.2 build v9.5.2rc0 (mac64[arm])
Thread count: 8 physical cores, 8 logical processors, using up to 8 threads
Optimize a model with 1104 rows, 413 columns and 3358 nonzeros
Model fingerprint: 0x27332cb4
Variable types: 309 continuous, 104 integer (104 binary)
Coefficient statistics:
  Matrix range     [1e-01, 8e+02]
  Objective range  [1e+00, 1e+00]
  Bounds range     [1e+02, 1e+02]
  RHS range        [1e+00, 1e+08]

MIP start from previous solve produced solution with objective 39.5907 (0.00s)
Loaded MIP start from previous solve with objective 39.5907

Presolve removed 280 rows and 132 columns
Presolve time: 0.01s
Presolved: 824 rows, 281 columns, 2644 nonzeros
Variable types: 221 continuous, 60 integer (60 binary)

Root relaxation: objective 1.300000e+02, 303 iterations, 0.01 seconds (0.00 work units)

    Nodes    |    Current Node    |     Objective Bounds      |     Work
 Expl Unexpl |  Obj  Depth IntInf | Incumbent    BestBd   Gap | It/Node Time

     0     0  130.00000    0    6   39.59065  130.00000   228%     -    0s
H    0     0                      80.5252648  130.00000  61.4%     -    0s
H    0     0                     110.4093485  130.00000  17.7%     -    0s
     0     0  130.00000    0    3  110.40935  130.00000  17.7%     -    0s
     0     0 infeasible    0       110.40935  110.40935  0.00%     -    0s

Explored 1 nodes (876 simplex iterations) in 0.17 seconds (0.05 work units)
Thread count was 8 (of 8 available processors)

Solution count 4: 110.409 110.409 80.5253 39.5907 

Optimal solution found (tolerance 1.00e-03)
Best objective 1.104093485212e+02, best bound 1.104093485212e+02, gap 0.0000%

User-callback calls 380, time in user-callback 0.00 sec
Gurobi Optimizer version 9.5.2 build v9.5.2rc0 (mac64[arm])
Thread count: 8 physical cores, 8 logical processors, using up to 8 threads
Optimize a model with 1355 rows, 497 columns and 4137 nonzeros
Model fingerprint: 0x8d60f5ff
Variable types: 385 continuous, 112 integer (112 binary)
Coefficient statistics:
  Matrix range     [1e-01, 8e+02]
  Objective range  [1e+00, 1e+00]
  Bounds range     [1e+02, 1e+02]
  RHS range        [1e+00, 1e+08]

MIP start from previous solve produced solution with objective 69.4747 (0.03s)
Loaded MIP start from previous solve with objective 69.4747

Presolve removed 344 rows and 162 columns
Presolve time: 0.05s
Presolved: 1011 rows, 335 columns, 3258 nonzeros
Variable types: 275 continuous, 60 integer (60 binary)

Root relaxation: objective 1.169359e+02, 312 iterations, 0.01 seconds (0.00 work units)

    Nodes    |    Current Node    |     Objective Bounds      |     Work
 Expl Unexpl |  Obj  Depth IntInf | Incumbent    BestBd   Gap | It/Node Time

     0     0  116.93587    0   11   69.47474  116.93587  68.3%     -    0s
H    0     0                      80.5252648  116.93587  45.2%     -    0s
     0     0  115.26263    0   11   80.52526  115.26263  43.1%     -    0s

Cutting planes:
  Gomory: 4
  Cover: 6
  Implied bound: 16
  Clique: 6
  MIR: 19
  Flow cover: 18
  RLT: 2
  Relax-and-lift: 2

Explored 1 nodes (510 simplex iterations) in 0.18 seconds (0.04 work units)
Thread count was 8 (of 8 available processors)

Solution count 2: 80.5253 69.4747 

Optimal solution found (tolerance 1.00e-03)
Best objective 8.052526482218e+01, best bound 8.052526482218e+01, gap 0.0000%

User-callback calls 393, time in user-callback 0.01 sec
